\ Model model_neg
\ LP format - for model browsing. Use MPS format to capture full model detail.
Minimize
  x_pos0 + x_pos1 + x_pos2 + x_pos3 + x_pos4 + x_pos5 + x_pos6 + x_pos7
   + x_pos8 + x_pos9 + x_pos10 + x_pos11 + x_pos12 + x_pos13 + x_pos14
   + x_pos15 + x_pos16 + x_pos17 + x_pos18 + x_pos19 + x_pos20 + x_pos21
   + x_pos22 + x_pos23 + x_pos24 + x_pos25 + x_pos26 + x_pos27 + x_pos28
   + x_pos29 + x_pos30 + x_pos31 + x_pos32 + x_pos33 + x_pos34 + x_pos35
   + x_pos36 + x_pos37 + x_pos38 + x_pos39 + x_pos40 + x_pos41 + x_pos42
   + x_pos43 + x_pos44 + x_pos45 + x_pos46 + x_pos47 + x_pos48 + x_pos49
   + x_pos50 + x_pos51 + x_pos52 + x_pos53 + x_pos54 + x_pos55 + x_pos56
   + x_pos57 + x_pos58 + x_pos59 + x_pos60 + x_pos61 + x_pos62 + x_pos63
   + x_pos64 + x_pos65 + x_pos66 + x_pos67 + x_pos68 + x_pos69 + x_pos70
   + x_pos71 + x_pos72 + x_pos73 + x_pos74 + x_pos75 + x_pos76 + x_pos77
   + x_pos78 + x_pos79 + x_pos80 + x_pos81 + x_pos82 + x_pos83 + x_pos84
   + x_pos85 + x_pos86 + x_pos87 + x_pos88 + x_pos89 + x_pos90 + x_pos91
   + x_pos92 + x_pos93 + x_pos94 + x_pos95 + x_pos96 + x_pos97 + x_pos98
   + x_pos99 + x_pos100 + x_pos101 + x_pos102 + x_pos103 + x_pos104
   + x_pos105 + x_pos106 + x_pos107 + x_pos108 + x_pos109 + x_pos110
   + x_pos111 + x_pos112 + x_pos113 + x_pos114 + x_pos115 + x_pos116
   + x_pos117 + x_pos118 + x_pos119 + x_pos120 + x_pos121 + x_pos122
   + x_pos123 + x_pos124 + x_pos125 + x_pos126 + x_pos127 + x_pos128
   + x_pos129 + x_pos130 + x_pos131 + x_pos132 + x_pos133 + x_pos134
   + x_pos135 + x_pos136 + x_pos137 + x_pos138 + x_pos139 + x_pos140
   + x_pos141 + x_pos142 + x_pos143 + x_pos144 + x_pos145 + x_pos146
   + x_pos147 + x_pos148 + x_pos149 + x_pos150 + x_pos151 + x_pos152
   + x_pos153 + x_pos154 + x_pos155 + x_pos156 + x_pos157 + x_pos158
   + x_pos159 + x_pos160 + x_pos161 + x_pos162 + x_pos163 + x_pos164
   + x_pos165 + x_pos166 + x_pos167 + x_pos168 + x_pos169 + x_pos170
   + x_pos171 + x_pos172 + x_pos173 + x_pos174 + x_pos175 + x_pos176
   + x_pos177 + x_pos178 + x_pos179 + x_pos180 + x_pos181 + x_pos182
   + x_pos183 + x_pos184 + x_pos185 + x_pos186 + x_pos187 + x_pos188
   + x_pos189 + x_pos190 + x_pos191 + x_pos192 + x_pos193 + x_pos194
   + x_pos195 + x_pos196 + x_pos197 + x_pos198 + x_pos199 + x_pos200
   + x_pos201 + x_pos202 + x_pos203 + x_pos204 + x_pos205 + x_pos206
   + x_pos207 + x_pos208 + x_pos209 + x_pos210 + x_pos211 + x_pos212
   + x_pos213 + x_pos214 + x_pos215 + x_pos216 + x_pos217 + x_pos218
   + x_pos219 + x_pos220 + x_pos221 + x_pos222 + x_pos223 + x_pos224
   + x_pos225 + x_pos226 + x_pos227 + x_pos228 + x_pos229 + x_pos230
   + x_pos231 + x_pos232 + x_pos233 + x_pos234 + x_pos235 + x_pos236
   + x_pos237 + x_pos238 + x_pos239 + x_pos240 + x_pos241 + x_pos242
   + x_pos243 + x_pos244 + x_pos245 + x_pos246 + x_pos247 + x_pos248
   + x_pos249 + x_pos250 + x_pos251 + x_pos252 + x_pos253 + x_pos254
   + x_pos255 + x_pos256 + x_pos257 + x_pos258 + x_pos259 + x_pos260
   + x_pos261 + x_pos262 + x_pos263 + x_pos264 + x_pos265 + x_pos266
   + x_pos267 + x_pos268 + x_pos269 + x_pos270 + x_pos271 + x_pos272
   + x_pos273 + x_pos274 + x_pos275 + x_pos276 + x_pos277 + x_pos278
   + x_pos279 + x_pos280 + x_pos281 + x_pos282 + x_pos283 + x_pos284
   + x_pos285 + x_pos286 + x_pos287 + x_pos288 + x_pos289 + x_pos290
   + x_pos291 + x_pos292 + x_pos293 + x_pos294 + x_pos295 + x_pos296
   + x_pos297 + x_pos298 + x_pos299 + x_pos300 + x_pos301 + x_pos302
   + x_pos303 + x_pos304 + x_pos305 + x_pos306 + x_pos307 + x_pos308
   + x_pos309 + x_pos310 + x_pos311 + x_pos312 + x_pos313 + x_pos314
   + x_pos315 + x_pos316 + x_pos317 + x_pos318 + x_pos319 + x_pos320
   + x_pos321 + x_pos322 + x_pos323 + x_pos324 + x_pos325 + x_pos326
   + x_pos327 + x_pos328 + x_pos329 + x_pos330 + x_pos331 + x_pos332
   + x_pos333 + x_pos334 + x_pos335 + x_pos336 + x_pos337 + x_pos338
   + x_pos339 + x_pos340 + x_pos341 + x_pos342 + x_pos343 + x_pos344
   + x_pos345 + x_pos346 + x_pos347 + x_pos348 + x_pos349 + x_pos350
   + x_pos351 + x_pos352 + x_pos353 + x_pos354 + x_pos355 + x_pos356
   + x_pos357 + x_pos358 + x_pos359 + x_pos360 + x_pos361 + x_pos362
   + x_pos363 + x_pos364 + x_pos365 + x_pos366 + x_pos367 + x_pos368
   + x_pos369 + x_pos370 + x_pos371 + x_pos372 + x_pos373 + x_pos374
   + x_pos375 + x_pos376 + x_pos377 + x_pos378 + x_pos379 + x_pos380
   + x_pos381 + x_pos382 + x_pos383 + x_pos384 + x_pos385 + x_pos386
   + x_pos387 + x_pos388 + x_pos389 + x_pos390 + x_pos391 + x_pos392
   + x_pos393 + x_pos394 + x_pos395 + x_pos396 + x_pos397 + x_pos398
   + x_pos399 + x_pos400 + x_pos401 + x_pos402 + x_pos403 + x_pos404
   + x_pos405 + x_pos406 + x_pos407 + x_pos408 + x_pos409 + x_pos410
   + x_pos411 + x_pos412 + x_pos413 + x_pos414 + x_pos415 + x_pos416
   + x_pos417 + x_pos418 + x_pos419 + x_pos420 + x_pos421 + x_pos422
   + x_pos423 + x_pos424 + x_pos425 + x_pos426 + x_pos427 + x_pos428
   + x_pos429 + x_pos430 + x_pos431 + x_pos432 + x_pos433 + x_pos434
   + x_pos435 + x_pos436 + x_pos437 + x_pos438 + x_pos439 + x_pos440
   + x_pos441 + x_pos442 + x_pos443 + x_pos444 + x_pos445 + x_pos446
   + x_pos447 + x_pos448 + x_pos449 + x_pos450 + x_pos451 + x_pos452
   + x_pos453 + x_pos454 + x_pos455 + x_pos456 + x_pos457 + x_pos458
   + x_pos459 + x_pos460 + x_pos461 + x_pos462 + x_pos463 + x_pos464
   + x_pos465 + x_pos466 + x_pos467 + x_pos468 + x_pos469 + x_pos470
   + x_pos471 + x_pos472 + x_pos473 + x_pos474 + x_pos475 + x_pos476
   + x_pos477 + x_pos478 + x_pos479 + x_pos480 + x_pos481 + x_pos482
   + x_pos483 + x_pos484 + x_pos485 + x_pos486 + x_pos487 + x_pos488
   + x_pos489 + x_pos490 + x_pos491 + x_pos492 + x_pos493 + x_pos494
   + x_pos495 + x_pos496 + x_pos497 + x_pos498 + x_pos499 + x_pos500
   + x_pos501 + x_pos502 + x_pos503 + x_pos504 + x_pos505 + x_pos506
   + x_pos507 + x_pos508 + x_pos509 + x_pos510 + x_pos511 + x_pos512
   + x_pos513 + x_pos514 + x_pos515 + x_pos516 + x_pos517 + x_pos518
   + x_pos519 + x_pos520 + x_pos521 + x_pos522 + x_pos523 + x_pos524
   + x_pos525 + x_pos526 + x_pos527 + x_pos528 + x_pos529 + x_pos530
   + x_pos531 + x_pos532 + x_pos533 + x_pos534 + x_pos535 + x_pos536
   + x_pos537 + x_pos538 + x_pos539 + x_pos540 + x_pos541 + x_pos542
   + x_pos543 + x_pos544 + x_pos545 + x_pos546 + x_pos547 + x_pos548
   + x_pos549 + x_pos550 + x_pos551 + x_pos552 + x_pos553 + x_pos554
   + x_pos555 + x_pos556 + x_pos557 + x_pos558 + x_pos559 + x_pos560
   + x_pos561 + x_pos562 + x_pos563 + x_pos564 + x_pos565 + x_pos566
   + x_pos567 + x_pos568 + x_pos569 + x_pos570 + x_pos571 + x_pos572
   + x_pos573 + x_pos574 + x_pos575 + x_pos576 + x_pos577 + x_pos578
   + x_pos579 + x_pos580 + x_pos581 + x_pos582 + x_pos583 + x_pos584
   + x_pos585 + x_pos586 + x_pos587 + x_pos588 + x_pos589 + x_pos590
   + x_pos591 + x_pos592 + x_pos593 + x_pos594 + x_pos595 + x_pos596
   + x_pos597 + x_pos598 + x_pos599 + x_pos600 + x_pos601 + x_pos602
   + x_pos603 + x_pos604 + x_pos605 + x_pos606 + x_pos607 + x_pos608
   + x_pos609 + x_pos610 + x_pos611 + x_pos612 + x_pos613 + x_pos614
   + x_pos615 + x_pos616 + x_pos617 + x_pos618 + x_pos619 + x_pos620
   + x_pos621 + x_pos622 + x_pos623 + x_pos624 + x_pos625 + x_pos626
   + x_pos627 + x_pos628 + x_pos629 + x_pos630 + x_pos631 + x_pos632
   + x_pos633 + x_pos634 + x_pos635 + x_pos636 + x_pos637 + x_pos638
   + x_pos639 + x_pos640 + x_pos641 + x_pos642 + x_pos643 + x_pos644
   + x_pos645 + x_pos646 + x_pos647 + x_pos648 + x_pos649 + x_pos650
   + x_pos651 + x_pos652 + x_pos653 + x_pos654 + x_pos655 + x_pos656
   + x_pos657 + x_pos658 + x_pos659 + x_pos660 + x_pos661 + x_pos662
   + x_pos663 + x_pos664 + x_pos665 + x_pos666 + x_pos667 + x_pos668
   + x_pos669 + x_pos670 + x_pos671 + x_pos672 + x_pos673 + x_pos674
   + x_pos675 + x_pos676 + x_pos677 + x_pos678 + x_pos679 + x_pos680
   + x_pos681 + x_pos682 + x_pos683 + x_pos684 + x_pos685 + x_pos686
   + x_pos687 + x_pos688 + x_pos689 + x_pos690 + x_pos691 + x_pos692
   + x_pos693 + x_pos694 + x_pos695 + x_pos696 + x_pos697 + x_pos698
   + x_pos699 + x_pos700 + x_pos701 + x_pos702 + x_pos703 + x_pos704
   + x_pos705 + x_pos706 + x_pos707 + x_pos708 + x_pos709 + x_pos710
   + x_pos711 + x_pos712 + x_pos713 + x_pos714 + x_pos715 + x_pos716
   + x_pos717 + x_pos718 + x_pos719 + x_pos720 + x_pos721 + x_pos722
   + x_pos723 + x_pos724 + x_pos725 + x_pos726 + x_pos727 + x_pos728
   + x_pos729 + x_pos730 + x_pos731 + x_pos732 + x_pos733 + x_pos734
   + x_pos735 + x_pos736 + x_pos737 + x_pos738 + x_pos739 + x_pos740
   + x_pos741 + x_pos742 + x_pos743 + x_pos744 + x_pos745 + x_pos746
   + x_pos747 + x_pos748 + x_pos749 + x_pos750 + x_pos751 + x_pos752
   + x_pos753 + x_pos754 + x_pos755 + x_pos756 + x_pos757 + x_pos758
   + x_pos759 + x_pos760 + x_pos761 + x_pos762 + x_pos763 + x_pos764
   + x_pos765 + x_pos766 + x_pos767 + x_pos768 + x_pos769 + x_pos770
   + x_pos771 + x_pos772 + x_pos773 + x_pos774 + x_pos775 + x_pos776
   + x_pos777 + x_pos778 + x_pos779 + x_pos780 + x_pos781 + x_pos782
   + x_pos783 + x_pos784 + x_pos785 + x_pos786 + x_pos787 + x_pos788
   + x_pos789 + x_pos790 + x_pos791 + x_pos792 + x_pos793 + x_pos794
   + x_pos795 + x_pos796 + x_pos797 + x_pos798 + x_pos799 + x_pos800
   + x_pos801 + x_pos802 + x_pos803 + x_pos804 + x_pos805 + x_pos806
   + x_pos807 + x_pos808 + x_pos809 + x_pos810 + x_pos811 + x_pos812
   + x_pos813 + x_pos814 + x_pos815 + x_pos816 + x_pos817 + x_pos818
   + x_pos819 + x_pos820 + x_pos821 + x_pos822 + x_pos823 + x_pos824
   + x_pos825 + x_pos826 + x_pos827 + x_pos828 + x_pos829 + x_pos830
   + x_pos831 + x_pos832 + x_pos833 + x_pos834 + x_pos835 + x_pos836
   + x_pos837 + x_pos838 + x_pos839 + x_pos840 + x_pos841 + x_pos842
   + x_pos843 + x_pos844 + x_pos845 + x_pos846 + x_pos847 + x_pos848
   + x_pos849 + x_pos850 + x_pos851 + x_pos852 + x_pos853 + x_pos854
   + x_pos855 + x_pos856 + x_pos857 + x_pos858 + x_pos859 + x_pos860
   + x_pos861 + x_pos862 + x_pos863 + x_pos864 + x_pos865 + x_pos866
   + x_pos867 + x_pos868 + x_pos869 + x_pos870 + x_pos871 + x_pos872
   + x_pos873 + x_pos874 + x_pos875 + x_pos876 + x_pos877 + x_pos878
   + x_pos879 + x_pos880 + x_pos881 + x_pos882 + x_pos883 + x_pos884
   + x_pos885 + x_pos886 + x_pos887 + x_pos888 + x_pos889 + x_pos890
   + x_pos891 + x_pos892 + x_pos893 + x_pos894 + x_pos895 + x_pos896
   + x_pos897 + x_pos898 + x_pos899 + x_pos900 + x_pos901 + x_pos902
   + x_pos903 + x_pos904 + x_pos905 + x_pos906 + x_pos907 + x_pos908
   + x_pos909 + x_pos910 + x_pos911 + x_pos912 + x_pos913 + x_pos914
   + x_pos915 + x_pos916 + x_pos917 + x_pos918 + x_pos919 + x_pos920
   + x_pos921 + x_pos922 + x_pos923 + x_pos924 + x_pos925 + x_pos926
   + x_pos927 + x_pos928 + x_pos929 + x_pos930 + x_neg0 + x_neg1 + x_neg2
   + x_neg3 + x_neg4 + x_neg5 + x_neg6 + x_neg7 + x_neg8 + x_neg9 + x_neg10
   + x_neg11 + x_neg12 + x_neg13 + x_neg14 + x_neg15 + x_neg16 + x_neg17
   + x_neg18 + x_neg19 + x_neg20 + x_neg21 + x_neg22 + x_neg23 + x_neg24
   + x_neg25 + x_neg26 + x_neg27 + x_neg28 + x_neg29 + x_neg30 + x_neg31
   + x_neg32 + x_neg33 + x_neg34 + x_neg35 + x_neg36 + x_neg37 + x_neg38
   + x_neg39 + x_neg40 + x_neg41 + x_neg42 + x_neg43 + x_neg44 + x_neg45
   + x_neg46 + x_neg47 + x_neg48 + x_neg49 + x_neg50 + x_neg51 + x_neg52
   + x_neg53 + x_neg54 + x_neg55 + x_neg56 + x_neg57 + x_neg58 + x_neg59
   + x_neg60 + x_neg61 + x_neg62 + x_neg63 + x_neg64 + x_neg65 + x_neg66
   + x_neg67 + x_neg68 + x_neg69 + x_neg70 + x_neg71 + x_neg72 + x_neg73
   + x_neg74 + x_neg75 + x_neg76 + x_neg77 + x_neg78 + x_neg79 + x_neg80
   + x_neg81 + x_neg82 + x_neg83 + x_neg84 + x_neg85 + x_neg86 + x_neg87
   + x_neg88 + x_neg89 + x_neg90 + x_neg91 + x_neg92 + x_neg93 + x_neg94
   + x_neg95 + x_neg96 + x_neg97 + x_neg98 + x_neg99 + x_neg100 + x_neg101
   + x_neg102 + x_neg103 + x_neg104 + x_neg105 + x_neg106 + x_neg107
   + x_neg108 + x_neg109 + x_neg110 + x_neg111 + x_neg112 + x_neg113
   + x_neg114 + x_neg115 + x_neg116 + x_neg117 + x_neg118 + x_neg119
   + x_neg120 + x_neg121 + x_neg122 + x_neg123 + x_neg124 + x_neg125
   + x_neg126 + x_neg127 + x_neg128 + x_neg129 + x_neg130 + x_neg131
   + x_neg132 + x_neg133 + x_neg134 + x_neg135 + x_neg136 + x_neg137
   + x_neg138 + x_neg139 + x_neg140 + x_neg141 + x_neg142 + x_neg143
   + x_neg144 + x_neg145 + x_neg146 + x_neg147 + x_neg148 + x_neg149
   + x_neg150 + x_neg151 + x_neg152 + x_neg153 + x_neg154 + x_neg155
   + x_neg156 + x_neg157 + x_neg158 + x_neg159 + x_neg160 + x_neg161
   + x_neg162 + x_neg163 + x_neg164 + x_neg165 + x_neg166 + x_neg167
   + x_neg168 + x_neg169 + x_neg170 + x_neg171 + x_neg172 + x_neg173
   + x_neg174 + x_neg175 + x_neg176 + x_neg177 + x_neg178 + x_neg179
   + x_neg180 + x_neg181 + x_neg182 + x_neg183 + x_neg184 + x_neg185
   + x_neg186 + x_neg187 + x_neg188 + x_neg189 + x_neg190 + x_neg191
   + x_neg192 + x_neg193 + x_neg194 + x_neg195 + x_neg196 + x_neg197
   + x_neg198 + x_neg199 + x_neg200 + x_neg201 + x_neg202 + x_neg203
   + x_neg204 + x_neg205 + x_neg206 + x_neg207 + x_neg208 + x_neg209
   + x_neg210 + x_neg211 + x_neg212 + x_neg213 + x_neg214 + x_neg215
   + x_neg216 + x_neg217 + x_neg218 + x_neg219 + x_neg220 + x_neg221
   + x_neg222 + x_neg223 + x_neg224 + x_neg225 + x_neg226 + x_neg227
   + x_neg228 + x_neg229 + x_neg230 + x_neg231 + x_neg232 + x_neg233
   + x_neg234 + x_neg235 + x_neg236 + x_neg237 + x_neg238 + x_neg239
   + x_neg240 + x_neg241 + x_neg242 + x_neg243 + x_neg244 + x_neg245
   + x_neg246 + x_neg247 + x_neg248 + x_neg249 + x_neg250 + x_neg251
   + x_neg252 + x_neg253 + x_neg254 + x_neg255 + x_neg256 + x_neg257
   + x_neg258 + x_neg259 + x_neg260 + x_neg261 + x_neg262 + x_neg263
   + x_neg264 + x_neg265 + x_neg266 + x_neg267 + x_neg268 + x_neg269
   + x_neg270 + x_neg271 + x_neg272 + x_neg273 + x_neg274 + x_neg275
   + x_neg276 + x_neg277 + x_neg278 + x_neg279 + x_neg280 + x_neg281
   + x_neg282 + x_neg283 + x_neg284 + x_neg285 + x_neg286 + x_neg287
   + x_neg288 + x_neg289 + x_neg290 + x_neg291 + x_neg292 + x_neg293
   + x_neg294 + x_neg295 + x_neg296 + x_neg297 + x_neg298 + x_neg299
   + x_neg300 + x_neg301 + x_neg302 + x_neg303 + x_neg304 + x_neg305
   + x_neg306 + x_neg307 + x_neg308 + x_neg309 + x_neg310 + x_neg311
   + x_neg312 + x_neg313 + x_neg314 + x_neg315 + x_neg316 + x_neg317
   + x_neg318 + x_neg319 + x_neg320 + x_neg321 + x_neg322 + x_neg323
   + x_neg324 + x_neg325 + x_neg326 + x_neg327 + x_neg328 + x_neg329
   + x_neg330 + x_neg331 + x_neg332 + x_neg333 + x_neg334 + x_neg335
   + x_neg336 + x_neg337 + x_neg338 + x_neg339 + x_neg340 + x_neg341
   + x_neg342 + x_neg343 + x_neg344 + x_neg345 + x_neg346 + x_neg347
   + x_neg348 + x_neg349 + x_neg350 + x_neg351 + x_neg352 + x_neg353
   + x_neg354 + x_neg355 + x_neg356 + x_neg357 + x_neg358 + x_neg359
   + x_neg360 + x_neg361 + x_neg362 + x_neg363 + x_neg364 + x_neg365
   + x_neg366 + x_neg367 + x_neg368 + x_neg369 + x_neg370 + x_neg371
   + x_neg372 + x_neg373 + x_neg374 + x_neg375 + x_neg376 + x_neg377
   + x_neg378 + x_neg379 + x_neg380 + x_neg381 + x_neg382 + x_neg383
   + x_neg384 + x_neg385 + x_neg386 + x_neg387 + x_neg388 + x_neg389
   + x_neg390 + x_neg391 + x_neg392 + x_neg393 + x_neg394 + x_neg395
   + x_neg396 + x_neg397 + x_neg398 + x_neg399 + x_neg400 + x_neg401
   + x_neg402 + x_neg403 + x_neg404 + x_neg405 + x_neg406 + x_neg407
   + x_neg408 + x_neg409 + x_neg410 + x_neg411 + x_neg412 + x_neg413
   + x_neg414 + x_neg415 + x_neg416 + x_neg417 + x_neg418 + x_neg419
   + x_neg420 + x_neg421 + x_neg422 + x_neg423 + x_neg424 + x_neg425
   + x_neg426 + x_neg427 + x_neg428 + x_neg429 + x_neg430 + x_neg431
   + x_neg432 + x_neg433 + x_neg434 + x_neg435 + x_neg436 + x_neg437
   + x_neg438 + x_neg439 + x_neg440 + x_neg441 + x_neg442 + x_neg443
   + x_neg444 + x_neg445 + x_neg446 + x_neg447 + x_neg448 + x_neg449
   + x_neg450 + x_neg451 + x_neg452 + x_neg453 + x_neg454 + x_neg455
   + x_neg456 + x_neg457 + x_neg458 + x_neg459 + x_neg460 + x_neg461
   + x_neg462 + x_neg463 + x_neg464 + x_neg465 + x_neg466 + x_neg467
   + x_neg468 + x_neg469 + x_neg470 + x_neg471 + x_neg472 + x_neg473
   + x_neg474 + x_neg475 + x_neg476 + x_neg477 + x_neg478 + x_neg479
   + x_neg480 + x_neg481 + x_neg482 + x_neg483 + x_neg484 + x_neg485
   + x_neg486 + x_neg487 + x_neg488 + x_neg489 + x_neg490 + x_neg491
   + x_neg492 + x_neg493 + x_neg494 + x_neg495 + x_neg496 + x_neg497
   + x_neg498 + x_neg499 + x_neg500 + x_neg501 + x_neg502 + x_neg503
   + x_neg504 + x_neg505 + x_neg506 + x_neg507 + x_neg508 + x_neg509
   + x_neg510 + x_neg511 + x_neg512 + x_neg513 + x_neg514 + x_neg515
   + x_neg516 + x_neg517 + x_neg518 + x_neg519 + x_neg520 + x_neg521
   + x_neg522 + x_neg523 + x_neg524 + x_neg525 + x_neg526 + x_neg527
   + x_neg528 + x_neg529 + x_neg530 + x_neg531 + x_neg532 + x_neg533
   + x_neg534 + x_neg535 + x_neg536 + x_neg537 + x_neg538 + x_neg539
   + x_neg540 + x_neg541 + x_neg542 + x_neg543 + x_neg544 + x_neg545
   + x_neg546 + x_neg547 + x_neg548 + x_neg549 + x_neg550 + x_neg551
   + x_neg552 + x_neg553 + x_neg554 + x_neg555 + x_neg556 + x_neg557
   + x_neg558 + x_neg559 + x_neg560 + x_neg561 + x_neg562 + x_neg563
   + x_neg564 + x_neg565 + x_neg566 + x_neg567 + x_neg568 + x_neg569
   + x_neg570 + x_neg571 + x_neg572 + x_neg573 + x_neg574 + x_neg575
   + x_neg576 + x_neg577 + x_neg578 + x_neg579 + x_neg580 + x_neg581
   + x_neg582 + x_neg583 + x_neg584 + x_neg585 + x_neg586 + x_neg587
   + x_neg588 + x_neg589 + x_neg590 + x_neg591 + x_neg592 + x_neg593
   + x_neg594 + x_neg595 + x_neg596 + x_neg597 + x_neg598 + x_neg599
   + x_neg600 + x_neg601 + x_neg602 + x_neg603 + x_neg604 + x_neg605
   + x_neg606 + x_neg607 + x_neg608 + x_neg609 + x_neg610 + x_neg611
   + x_neg612 + x_neg613 + x_neg614 + x_neg615 + x_neg616 + x_neg617
   + x_neg618 + x_neg619 + x_neg620 + x_neg621 + x_neg622 + x_neg623
   + x_neg624 + x_neg625 + x_neg626 + x_neg627 + x_neg628 + x_neg629
   + x_neg630 + x_neg631 + x_neg632 + x_neg633 + x_neg634 + x_neg635
   + x_neg636 + x_neg637 + x_neg638 + x_neg639 + x_neg640 + x_neg641
   + x_neg642 + x_neg643 + x_neg644 + x_neg645 + x_neg646 + x_neg647
   + x_neg648 + x_neg649 + x_neg650 + x_neg651 + x_neg652 + x_neg653
   + x_neg654 + x_neg655 + x_neg656 + x_neg657 + x_neg658 + x_neg659
   + x_neg660 + x_neg661 + x_neg662 + x_neg663 + x_neg664 + x_neg665
   + x_neg666 + x_neg667 + x_neg668 + x_neg669 + x_neg670 + x_neg671
   + x_neg672 + x_neg673 + x_neg674 + x_neg675 + x_neg676 + x_neg677
   + x_neg678 + x_neg679 + x_neg680 + x_neg681 + x_neg682 + x_neg683
   + x_neg684 + x_neg685 + x_neg686 + x_neg687 + x_neg688 + x_neg689
   + x_neg690 + x_neg691 + x_neg692 + x_neg693 + x_neg694 + x_neg695
   + x_neg696 + x_neg697 + x_neg698 + x_neg699 + x_neg700 + x_neg701
   + x_neg702 + x_neg703 + x_neg704 + x_neg705 + x_neg706 + x_neg707
   + x_neg708 + x_neg709 + x_neg710 + x_neg711 + x_neg712 + x_neg713
   + x_neg714 + x_neg715 + x_neg716 + x_neg717 + x_neg718 + x_neg719
   + x_neg720 + x_neg721 + x_neg722 + x_neg723 + x_neg724 + x_neg725
   + x_neg726 + x_neg727 + x_neg728 + x_neg729 + x_neg730 + x_neg731
   + x_neg732 + x_neg733 + x_neg734 + x_neg735 + x_neg736 + x_neg737
   + x_neg738 + x_neg739 + x_neg740 + x_neg741 + x_neg742 + x_neg743
   + x_neg744 + x_neg745 + x_neg746 + x_neg747 + x_neg748 + x_neg749
   + x_neg750 + x_neg751 + x_neg752 + x_neg753 + x_neg754 + x_neg755
   + x_neg756 + x_neg757 + x_neg758 + x_neg759 + x_neg760 + x_neg761
   + x_neg762 + x_neg763 + x_neg764 + x_neg765 + x_neg766 + x_neg767
   + x_neg768 + x_neg769 + x_neg770 + x_neg771 + x_neg772 + x_neg773
   + x_neg774 + x_neg775 + x_neg776 + x_neg777 + x_neg778 + x_neg779
   + x_neg780 + x_neg781 + x_neg782 + x_neg783 + x_neg784 + x_neg785
   + x_neg786 + x_neg787 + x_neg788 + x_neg789 + x_neg790 + x_neg791
   + x_neg792 + x_neg793 + x_neg794 + x_neg795 + x_neg796 + x_neg797
   + x_neg798 + x_neg799 + x_neg800 + x_neg801 + x_neg802 + x_neg803
   + x_neg804 + x_neg805 + x_neg806 + x_neg807 + x_neg808 + x_neg809
   + x_neg810 + x_neg811 + x_neg812 + x_neg813 + x_neg814 + x_neg815
   + x_neg816 + x_neg817 + x_neg818 + x_neg819 + x_neg820 + x_neg821
   + x_neg822 + x_neg823 + x_neg824 + x_neg825 + x_neg826 + x_neg827
   + x_neg828 + x_neg829 + x_neg830 + x_neg831 + x_neg832 + x_neg833
   + x_neg834 + x_neg835 + x_neg836 + x_neg837 + x_neg838 + x_neg839
   + x_neg840 + x_neg841 + x_neg842 + x_neg843 + x_neg844 + x_neg845
   + x_neg846 + x_neg847 + x_neg848 + x_neg849 + x_neg850 + x_neg851
   + x_neg852 + x_neg853 + x_neg854 + x_neg855 + x_neg856 + x_neg857
   + x_neg858 + x_neg859 + x_neg860 + x_neg861 + x_neg862 + x_neg863
   + x_neg864 + x_neg865 + x_neg866 + x_neg867 + x_neg868 + x_neg869
   + x_neg870 + x_neg871 + x_neg872 + x_neg873 + x_neg874 + x_neg875
   + x_neg876 + x_neg877 + x_neg878 + x_neg879 + x_neg880 + x_neg881
   + x_neg882 + x_neg883 + x_neg884 + x_neg885 + x_neg886 + x_neg887
   + x_neg888 + x_neg889 + x_neg890 + x_neg891 + x_neg892 + x_neg893
   + x_neg894 + x_neg895 + x_neg896 + x_neg897 + x_neg898 + x_neg899
   + x_neg900 + x_neg901 + x_neg902 + x_neg903 + x_neg904 + x_neg905
   + x_neg906 + x_neg907 + x_neg908 + x_neg909 + x_neg910 + x_neg911
   + x_neg912 + x_neg913 + x_neg914 + x_neg915 + x_neg916 + x_neg917
   + x_neg918 + x_neg919 + x_neg920 + x_neg921 + x_neg922 + x_neg923
   + x_neg924 + x_neg925 + x_neg926 + x_neg927 + x_neg928 + x_neg929
   + x_neg930
Subject To
 constraint2: x_pos105 + x_pos186 + x_pos261 + x_pos290 + x_pos366
   + x_pos404 + x_pos455 + x_pos457 + x_pos459 + x_pos462 + x_pos465
   - x_neg105 - x_neg186 - x_neg261 - x_neg290 - x_neg366 - x_neg404
   - x_neg455 - x_neg457 - x_neg459 - x_neg462 - x_neg465 = 0
 constraint3: x_pos108 = 1
 constraint4: x_neg108 = 0
Bounds
Generals
 x_pos0 x_pos1 x_pos2 x_pos3 x_pos4 x_pos5 x_pos6 x_pos7 x_pos8 x_pos9
 x_pos10 x_pos11 x_pos12 x_pos13 x_pos14 x_pos15 x_pos16 x_pos17 x_pos18
 x_pos19 x_pos20 x_pos21 x_pos22 x_pos23 x_pos24 x_pos25 x_pos26 x_pos27
 x_pos28 x_pos29 x_pos30 x_pos31 x_pos32 x_pos33 x_pos34 x_pos35 x_pos36
 x_pos37 x_pos38 x_pos39 x_pos40 x_pos41 x_pos42 x_pos43 x_pos44 x_pos45
 x_pos46 x_pos47 x_pos48 x_pos49 x_pos50 x_pos51 x_pos52 x_pos53 x_pos54
 x_pos55 x_pos56 x_pos57 x_pos58 x_pos59 x_pos60 x_pos61 x_pos62 x_pos63
 x_pos64 x_pos65 x_pos66 x_pos67 x_pos68 x_pos69 x_pos70 x_pos71 x_pos72
 x_pos73 x_pos74 x_pos75 x_pos76 x_pos77 x_pos78 x_pos79 x_pos80 x_pos81
 x_pos82 x_pos83 x_pos84 x_pos85 x_pos86 x_pos87 x_pos88 x_pos89 x_pos90
 x_pos91 x_pos92 x_pos93 x_pos94 x_pos95 x_pos96 x_pos97 x_pos98 x_pos99
 x_pos100 x_pos101 x_pos102 x_pos103 x_pos104 x_pos105 x_pos106 x_pos107
 x_pos108 x_pos109 x_pos110 x_pos111 x_pos112 x_pos113 x_pos114 x_pos115
 x_pos116 x_pos117 x_pos118 x_pos119 x_pos120 x_pos121 x_pos122 x_pos123
 x_pos124 x_pos125 x_pos126 x_pos127 x_pos128 x_pos129 x_pos130 x_pos131
 x_pos132 x_pos133 x_pos134 x_pos135 x_pos136 x_pos137 x_pos138 x_pos139
 x_pos140 x_pos141 x_pos142 x_pos143 x_pos144 x_pos145 x_pos146 x_pos147
 x_pos148 x_pos149 x_pos150 x_pos151 x_pos152 x_pos153 x_pos154 x_pos155
 x_pos156 x_pos157 x_pos158 x_pos159 x_pos160 x_pos161 x_pos162 x_pos163
 x_pos164 x_pos165 x_pos166 x_pos167 x_pos168 x_pos169 x_pos170 x_pos171
 x_pos172 x_pos173 x_pos174 x_pos175 x_pos176 x_pos177 x_pos178 x_pos179
 x_pos180 x_pos181 x_pos182 x_pos183 x_pos184 x_pos185 x_pos186 x_pos187
 x_pos188 x_pos189 x_pos190 x_pos191 x_pos192 x_pos193 x_pos194 x_pos195
 x_pos196 x_pos197 x_pos198 x_pos199 x_pos200 x_pos201 x_pos202 x_pos203
 x_pos204 x_pos205 x_pos206 x_pos207 x_pos208 x_pos209 x_pos210 x_pos211
 x_pos212 x_pos213 x_pos214 x_pos215 x_pos216 x_pos217 x_pos218 x_pos219
 x_pos220 x_pos221 x_pos222 x_pos223 x_pos224 x_pos225 x_pos226 x_pos227
 x_pos228 x_pos229 x_pos230 x_pos231 x_pos232 x_pos233 x_pos234 x_pos235
 x_pos236 x_pos237 x_pos238 x_pos239 x_pos240 x_pos241 x_pos242 x_pos243
 x_pos244 x_pos245 x_pos246 x_pos247 x_pos248 x_pos249 x_pos250 x_pos251
 x_pos252 x_pos253 x_pos254 x_pos255 x_pos256 x_pos257 x_pos258 x_pos259
 x_pos260 x_pos261 x_pos262 x_pos263 x_pos264 x_pos265 x_pos266 x_pos267
 x_pos268 x_pos269 x_pos270 x_pos271 x_pos272 x_pos273 x_pos274 x_pos275
 x_pos276 x_pos277 x_pos278 x_pos279 x_pos280 x_pos281 x_pos282 x_pos283
 x_pos284 x_pos285 x_pos286 x_pos287 x_pos288 x_pos289 x_pos290 x_pos291
 x_pos292 x_pos293 x_pos294 x_pos295 x_pos296 x_pos297 x_pos298 x_pos299
 x_pos300 x_pos301 x_pos302 x_pos303 x_pos304 x_pos305 x_pos306 x_pos307
 x_pos308 x_pos309 x_pos310 x_pos311 x_pos312 x_pos313 x_pos314 x_pos315
 x_pos316 x_pos317 x_pos318 x_pos319 x_pos320 x_pos321 x_pos322 x_pos323
 x_pos324 x_pos325 x_pos326 x_pos327 x_pos328 x_pos329 x_pos330 x_pos331
 x_pos332 x_pos333 x_pos334 x_pos335 x_pos336 x_pos337 x_pos338 x_pos339
 x_pos340 x_pos341 x_pos342 x_pos343 x_pos344 x_pos345 x_pos346 x_pos347
 x_pos348 x_pos349 x_pos350 x_pos351 x_pos352 x_pos353 x_pos354 x_pos355
 x_pos356 x_pos357 x_pos358 x_pos359 x_pos360 x_pos361 x_pos362 x_pos363
 x_pos364 x_pos365 x_pos366 x_pos367 x_pos368 x_pos369 x_pos370 x_pos371
 x_pos372 x_pos373 x_pos374 x_pos375 x_pos376 x_pos377 x_pos378 x_pos379
 x_pos380 x_pos381 x_pos382 x_pos383 x_pos384 x_pos385 x_pos386 x_pos387
 x_pos388 x_pos389 x_pos390 x_pos391 x_pos392 x_pos393 x_pos394 x_pos395
 x_pos396 x_pos397 x_pos398 x_pos399 x_pos400 x_pos401 x_pos402 x_pos403
 x_pos404 x_pos405 x_pos406 x_pos407 x_pos408 x_pos409 x_pos410 x_pos411
 x_pos412 x_pos413 x_pos414 x_pos415 x_pos416 x_pos417 x_pos418 x_pos419
 x_pos420 x_pos421 x_pos422 x_pos423 x_pos424 x_pos425 x_pos426 x_pos427
 x_pos428 x_pos429 x_pos430 x_pos431 x_pos432 x_pos433 x_pos434 x_pos435
 x_pos436 x_pos437 x_pos438 x_pos439 x_pos440 x_pos441 x_pos442 x_pos443
 x_pos444 x_pos445 x_pos446 x_pos447 x_pos448 x_pos449 x_pos450 x_pos451
 x_pos452 x_pos453 x_pos454 x_pos455 x_pos456 x_pos457 x_pos458 x_pos459
 x_pos460 x_pos461 x_pos462 x_pos463 x_pos464 x_pos465 x_pos466 x_pos467
 x_pos468 x_pos469 x_pos470 x_pos471 x_pos472 x_pos473 x_pos474 x_pos475
 x_pos476 x_pos477 x_pos478 x_pos479 x_pos480 x_pos481 x_pos482 x_pos483
 x_pos484 x_pos485 x_pos486 x_pos487 x_pos488 x_pos489 x_pos490 x_pos491
 x_pos492 x_pos493 x_pos494 x_pos495 x_pos496 x_pos497 x_pos498 x_pos499
 x_pos500 x_pos501 x_pos502 x_pos503 x_pos504 x_pos505 x_pos506 x_pos507
 x_pos508 x_pos509 x_pos510 x_pos511 x_pos512 x_pos513 x_pos514 x_pos515
 x_pos516 x_pos517 x_pos518 x_pos519 x_pos520 x_pos521 x_pos522 x_pos523
 x_pos524 x_pos525 x_pos526 x_pos527 x_pos528 x_pos529 x_pos530 x_pos531
 x_pos532 x_pos533 x_pos534 x_pos535 x_pos536 x_pos537 x_pos538 x_pos539
 x_pos540 x_pos541 x_pos542 x_pos543 x_pos544 x_pos545 x_pos546 x_pos547
 x_pos548 x_pos549 x_pos550 x_pos551 x_pos552 x_pos553 x_pos554 x_pos555
 x_pos556 x_pos557 x_pos558 x_pos559 x_pos560 x_pos561 x_pos562 x_pos563
 x_pos564 x_pos565 x_pos566 x_pos567 x_pos568 x_pos569 x_pos570 x_pos571
 x_pos572 x_pos573 x_pos574 x_pos575 x_pos576 x_pos577 x_pos578 x_pos579
 x_pos580 x_pos581 x_pos582 x_pos583 x_pos584 x_pos585 x_pos586 x_pos587
 x_pos588 x_pos589 x_pos590 x_pos591 x_pos592 x_pos593 x_pos594 x_pos595
 x_pos596 x_pos597 x_pos598 x_pos599 x_pos600 x_pos601 x_pos602 x_pos603
 x_pos604 x_pos605 x_pos606 x_pos607 x_pos608 x_pos609 x_pos610 x_pos611
 x_pos612 x_pos613 x_pos614 x_pos615 x_pos616 x_pos617 x_pos618 x_pos619
 x_pos620 x_pos621 x_pos622 x_pos623 x_pos624 x_pos625 x_pos626 x_pos627
 x_pos628 x_pos629 x_pos630 x_pos631 x_pos632 x_pos633 x_pos634 x_pos635
 x_pos636 x_pos637 x_pos638 x_pos639 x_pos640 x_pos641 x_pos642 x_pos643
 x_pos644 x_pos645 x_pos646 x_pos647 x_pos648 x_pos649 x_pos650 x_pos651
 x_pos652 x_pos653 x_pos654 x_pos655 x_pos656 x_pos657 x_pos658 x_pos659
 x_pos660 x_pos661 x_pos662 x_pos663 x_pos664 x_pos665 x_pos666 x_pos667
 x_pos668 x_pos669 x_pos670 x_pos671 x_pos672 x_pos673 x_pos674 x_pos675
 x_pos676 x_pos677 x_pos678 x_pos679 x_pos680 x_pos681 x_pos682 x_pos683
 x_pos684 x_pos685 x_pos686 x_pos687 x_pos688 x_pos689 x_pos690 x_pos691
 x_pos692 x_pos693 x_pos694 x_pos695 x_pos696 x_pos697 x_pos698 x_pos699
 x_pos700 x_pos701 x_pos702 x_pos703 x_pos704 x_pos705 x_pos706 x_pos707
 x_pos708 x_pos709 x_pos710 x_pos711 x_pos712 x_pos713 x_pos714 x_pos715
 x_pos716 x_pos717 x_pos718 x_pos719 x_pos720 x_pos721 x_pos722 x_pos723
 x_pos724 x_pos725 x_pos726 x_pos727 x_pos728 x_pos729 x_pos730 x_pos731
 x_pos732 x_pos733 x_pos734 x_pos735 x_pos736 x_pos737 x_pos738 x_pos739
 x_pos740 x_pos741 x_pos742 x_pos743 x_pos744 x_pos745 x_pos746 x_pos747
 x_pos748 x_pos749 x_pos750 x_pos751 x_pos752 x_pos753 x_pos754 x_pos755
 x_pos756 x_pos757 x_pos758 x_pos759 x_pos760 x_pos761 x_pos762 x_pos763
 x_pos764 x_pos765 x_pos766 x_pos767 x_pos768 x_pos769 x_pos770 x_pos771
 x_pos772 x_pos773 x_pos774 x_pos775 x_pos776 x_pos777 x_pos778 x_pos779
 x_pos780 x_pos781 x_pos782 x_pos783 x_pos784 x_pos785 x_pos786 x_pos787
 x_pos788 x_pos789 x_pos790 x_pos791 x_pos792 x_pos793 x_pos794 x_pos795
 x_pos796 x_pos797 x_pos798 x_pos799 x_pos800 x_pos801 x_pos802 x_pos803
 x_pos804 x_pos805 x_pos806 x_pos807 x_pos808 x_pos809 x_pos810 x_pos811
 x_pos812 x_pos813 x_pos814 x_pos815 x_pos816 x_pos817 x_pos818 x_pos819
 x_pos820 x_pos821 x_pos822 x_pos823 x_pos824 x_pos825 x_pos826 x_pos827
 x_pos828 x_pos829 x_pos830 x_pos831 x_pos832 x_pos833 x_pos834 x_pos835
 x_pos836 x_pos837 x_pos838 x_pos839 x_pos840 x_pos841 x_pos842 x_pos843
 x_pos844 x_pos845 x_pos846 x_pos847 x_pos848 x_pos849 x_pos850 x_pos851
 x_pos852 x_pos853 x_pos854 x_pos855 x_pos856 x_pos857 x_pos858 x_pos859
 x_pos860 x_pos861 x_pos862 x_pos863 x_pos864 x_pos865 x_pos866 x_pos867
 x_pos868 x_pos869 x_pos870 x_pos871 x_pos872 x_pos873 x_pos874 x_pos875
 x_pos876 x_pos877 x_pos878 x_pos879 x_pos880 x_pos881 x_pos882 x_pos883
 x_pos884 x_pos885 x_pos886 x_pos887 x_pos888 x_pos889 x_pos890 x_pos891
 x_pos892 x_pos893 x_pos894 x_pos895 x_pos896 x_pos897 x_pos898 x_pos899
 x_pos900 x_pos901 x_pos902 x_pos903 x_pos904 x_pos905 x_pos906 x_pos907
 x_pos908 x_pos909 x_pos910 x_pos911 x_pos912 x_pos913 x_pos914 x_pos915
 x_pos916 x_pos917 x_pos918 x_pos919 x_pos920 x_pos921 x_pos922 x_pos923
 x_pos924 x_pos925 x_pos926 x_pos927 x_pos928 x_pos929 x_pos930 x_neg0
 x_neg1 x_neg2 x_neg3 x_neg4 x_neg5 x_neg6 x_neg7 x_neg8 x_neg9 x_neg10
 x_neg11 x_neg12 x_neg13 x_neg14 x_neg15 x_neg16 x_neg17 x_neg18 x_neg19
 x_neg20 x_neg21 x_neg22 x_neg23 x_neg24 x_neg25 x_neg26 x_neg27 x_neg28
 x_neg29 x_neg30 x_neg31 x_neg32 x_neg33 x_neg34 x_neg35 x_neg36 x_neg37
 x_neg38 x_neg39 x_neg40 x_neg41 x_neg42 x_neg43 x_neg44 x_neg45 x_neg46
 x_neg47 x_neg48 x_neg49 x_neg50 x_neg51 x_neg52 x_neg53 x_neg54 x_neg55
 x_neg56 x_neg57 x_neg58 x_neg59 x_neg60 x_neg61 x_neg62 x_neg63 x_neg64
 x_neg65 x_neg66 x_neg67 x_neg68 x_neg69 x_neg70 x_neg71 x_neg72 x_neg73
 x_neg74 x_neg75 x_neg76 x_neg77 x_neg78 x_neg79 x_neg80 x_neg81 x_neg82
 x_neg83 x_neg84 x_neg85 x_neg86 x_neg87 x_neg88 x_neg89 x_neg90 x_neg91
 x_neg92 x_neg93 x_neg94 x_neg95 x_neg96 x_neg97 x_neg98 x_neg99 x_neg100
 x_neg101 x_neg102 x_neg103 x_neg104 x_neg105 x_neg106 x_neg107 x_neg108
 x_neg109 x_neg110 x_neg111 x_neg112 x_neg113 x_neg114 x_neg115 x_neg116
 x_neg117 x_neg118 x_neg119 x_neg120 x_neg121 x_neg122 x_neg123 x_neg124
 x_neg125 x_neg126 x_neg127 x_neg128 x_neg129 x_neg130 x_neg131 x_neg132
 x_neg133 x_neg134 x_neg135 x_neg136 x_neg137 x_neg138 x_neg139 x_neg140
 x_neg141 x_neg142 x_neg143 x_neg144 x_neg145 x_neg146 x_neg147 x_neg148
 x_neg149 x_neg150 x_neg151 x_neg152 x_neg153 x_neg154 x_neg155 x_neg156
 x_neg157 x_neg158 x_neg159 x_neg160 x_neg161 x_neg162 x_neg163 x_neg164
 x_neg165 x_neg166 x_neg167 x_neg168 x_neg169 x_neg170 x_neg171 x_neg172
 x_neg173 x_neg174 x_neg175 x_neg176 x_neg177 x_neg178 x_neg179 x_neg180
 x_neg181 x_neg182 x_neg183 x_neg184 x_neg185 x_neg186 x_neg187 x_neg188
 x_neg189 x_neg190 x_neg191 x_neg192 x_neg193 x_neg194 x_neg195 x_neg196
 x_neg197 x_neg198 x_neg199 x_neg200 x_neg201 x_neg202 x_neg203 x_neg204
 x_neg205 x_neg206 x_neg207 x_neg208 x_neg209 x_neg210 x_neg211 x_neg212
 x_neg213 x_neg214 x_neg215 x_neg216 x_neg217 x_neg218 x_neg219 x_neg220
 x_neg221 x_neg222 x_neg223 x_neg224 x_neg225 x_neg226 x_neg227 x_neg228
 x_neg229 x_neg230 x_neg231 x_neg232 x_neg233 x_neg234 x_neg235 x_neg236
 x_neg237 x_neg238 x_neg239 x_neg240 x_neg241 x_neg242 x_neg243 x_neg244
 x_neg245 x_neg246 x_neg247 x_neg248 x_neg249 x_neg250 x_neg251 x_neg252
 x_neg253 x_neg254 x_neg255 x_neg256 x_neg257 x_neg258 x_neg259 x_neg260
 x_neg261 x_neg262 x_neg263 x_neg264 x_neg265 x_neg266 x_neg267 x_neg268
 x_neg269 x_neg270 x_neg271 x_neg272 x_neg273 x_neg274 x_neg275 x_neg276
 x_neg277 x_neg278 x_neg279 x_neg280 x_neg281 x_neg282 x_neg283 x_neg284
 x_neg285 x_neg286 x_neg287 x_neg288 x_neg289 x_neg290 x_neg291 x_neg292
 x_neg293 x_neg294 x_neg295 x_neg296 x_neg297 x_neg298 x_neg299 x_neg300
 x_neg301 x_neg302 x_neg303 x_neg304 x_neg305 x_neg306 x_neg307 x_neg308
 x_neg309 x_neg310 x_neg311 x_neg312 x_neg313 x_neg314 x_neg315 x_neg316
 x_neg317 x_neg318 x_neg319 x_neg320 x_neg321 x_neg322 x_neg323 x_neg324
 x_neg325 x_neg326 x_neg327 x_neg328 x_neg329 x_neg330 x_neg331 x_neg332
 x_neg333 x_neg334 x_neg335 x_neg336 x_neg337 x_neg338 x_neg339 x_neg340
 x_neg341 x_neg342 x_neg343 x_neg344 x_neg345 x_neg346 x_neg347 x_neg348
 x_neg349 x_neg350 x_neg351 x_neg352 x_neg353 x_neg354 x_neg355 x_neg356
 x_neg357 x_neg358 x_neg359 x_neg360 x_neg361 x_neg362 x_neg363 x_neg364
 x_neg365 x_neg366 x_neg367 x_neg368 x_neg369 x_neg370 x_neg371 x_neg372
 x_neg373 x_neg374 x_neg375 x_neg376 x_neg377 x_neg378 x_neg379 x_neg380
 x_neg381 x_neg382 x_neg383 x_neg384 x_neg385 x_neg386 x_neg387 x_neg388
 x_neg389 x_neg390 x_neg391 x_neg392 x_neg393 x_neg394 x_neg395 x_neg396
 x_neg397 x_neg398 x_neg399 x_neg400 x_neg401 x_neg402 x_neg403 x_neg404
 x_neg405 x_neg406 x_neg407 x_neg408 x_neg409 x_neg410 x_neg411 x_neg412
 x_neg413 x_neg414 x_neg415 x_neg416 x_neg417 x_neg418 x_neg419 x_neg420
 x_neg421 x_neg422 x_neg423 x_neg424 x_neg425 x_neg426 x_neg427 x_neg428
 x_neg429 x_neg430 x_neg431 x_neg432 x_neg433 x_neg434 x_neg435 x_neg436
 x_neg437 x_neg438 x_neg439 x_neg440 x_neg441 x_neg442 x_neg443 x_neg444
 x_neg445 x_neg446 x_neg447 x_neg448 x_neg449 x_neg450 x_neg451 x_neg452
 x_neg453 x_neg454 x_neg455 x_neg456 x_neg457 x_neg458 x_neg459 x_neg460
 x_neg461 x_neg462 x_neg463 x_neg464 x_neg465 x_neg466 x_neg467 x_neg468
 x_neg469 x_neg470 x_neg471 x_neg472 x_neg473 x_neg474 x_neg475 x_neg476
 x_neg477 x_neg478 x_neg479 x_neg480 x_neg481 x_neg482 x_neg483 x_neg484
 x_neg485 x_neg486 x_neg487 x_neg488 x_neg489 x_neg490 x_neg491 x_neg492
 x_neg493 x_neg494 x_neg495 x_neg496 x_neg497 x_neg498 x_neg499 x_neg500
 x_neg501 x_neg502 x_neg503 x_neg504 x_neg505 x_neg506 x_neg507 x_neg508
 x_neg509 x_neg510 x_neg511 x_neg512 x_neg513 x_neg514 x_neg515 x_neg516
 x_neg517 x_neg518 x_neg519 x_neg520 x_neg521 x_neg522 x_neg523 x_neg524
 x_neg525 x_neg526 x_neg527 x_neg528 x_neg529 x_neg530 x_neg531 x_neg532
 x_neg533 x_neg534 x_neg535 x_neg536 x_neg537 x_neg538 x_neg539 x_neg540
 x_neg541 x_neg542 x_neg543 x_neg544 x_neg545 x_neg546 x_neg547 x_neg548
 x_neg549 x_neg550 x_neg551 x_neg552 x_neg553 x_neg554 x_neg555 x_neg556
 x_neg557 x_neg558 x_neg559 x_neg560 x_neg561 x_neg562 x_neg563 x_neg564
 x_neg565 x_neg566 x_neg567 x_neg568 x_neg569 x_neg570 x_neg571 x_neg572
 x_neg573 x_neg574 x_neg575 x_neg576 x_neg577 x_neg578 x_neg579 x_neg580
 x_neg581 x_neg582 x_neg583 x_neg584 x_neg585 x_neg586 x_neg587 x_neg588
 x_neg589 x_neg590 x_neg591 x_neg592 x_neg593 x_neg594 x_neg595 x_neg596
 x_neg597 x_neg598 x_neg599 x_neg600 x_neg601 x_neg602 x_neg603 x_neg604
 x_neg605 x_neg606 x_neg607 x_neg608 x_neg609 x_neg610 x_neg611 x_neg612
 x_neg613 x_neg614 x_neg615 x_neg616 x_neg617 x_neg618 x_neg619 x_neg620
 x_neg621 x_neg622 x_neg623 x_neg624 x_neg625 x_neg626 x_neg627 x_neg628
 x_neg629 x_neg630 x_neg631 x_neg632 x_neg633 x_neg634 x_neg635 x_neg636
 x_neg637 x_neg638 x_neg639 x_neg640 x_neg641 x_neg642 x_neg643 x_neg644
 x_neg645 x_neg646 x_neg647 x_neg648 x_neg649 x_neg650 x_neg651 x_neg652
 x_neg653 x_neg654 x_neg655 x_neg656 x_neg657 x_neg658 x_neg659 x_neg660
 x_neg661 x_neg662 x_neg663 x_neg664 x_neg665 x_neg666 x_neg667 x_neg668
 x_neg669 x_neg670 x_neg671 x_neg672 x_neg673 x_neg674 x_neg675 x_neg676
 x_neg677 x_neg678 x_neg679 x_neg680 x_neg681 x_neg682 x_neg683 x_neg684
 x_neg685 x_neg686 x_neg687 x_neg688 x_neg689 x_neg690 x_neg691 x_neg692
 x_neg693 x_neg694 x_neg695 x_neg696 x_neg697 x_neg698 x_neg699 x_neg700
 x_neg701 x_neg702 x_neg703 x_neg704 x_neg705 x_neg706 x_neg707 x_neg708
 x_neg709 x_neg710 x_neg711 x_neg712 x_neg713 x_neg714 x_neg715 x_neg716
 x_neg717 x_neg718 x_neg719 x_neg720 x_neg721 x_neg722 x_neg723 x_neg724
 x_neg725 x_neg726 x_neg727 x_neg728 x_neg729 x_neg730 x_neg731 x_neg732
 x_neg733 x_neg734 x_neg735 x_neg736 x_neg737 x_neg738 x_neg739 x_neg740
 x_neg741 x_neg742 x_neg743 x_neg744 x_neg745 x_neg746 x_neg747 x_neg748
 x_neg749 x_neg750 x_neg751 x_neg752 x_neg753 x_neg754 x_neg755 x_neg756
 x_neg757 x_neg758 x_neg759 x_neg760 x_neg761 x_neg762 x_neg763 x_neg764
 x_neg765 x_neg766 x_neg767 x_neg768 x_neg769 x_neg770 x_neg771 x_neg772
 x_neg773 x_neg774 x_neg775 x_neg776 x_neg777 x_neg778 x_neg779 x_neg780
 x_neg781 x_neg782 x_neg783 x_neg784 x_neg785 x_neg786 x_neg787 x_neg788
 x_neg789 x_neg790 x_neg791 x_neg792 x_neg793 x_neg794 x_neg795 x_neg796
 x_neg797 x_neg798 x_neg799 x_neg800 x_neg801 x_neg802 x_neg803 x_neg804
 x_neg805 x_neg806 x_neg807 x_neg808 x_neg809 x_neg810 x_neg811 x_neg812
 x_neg813 x_neg814 x_neg815 x_neg816 x_neg817 x_neg818 x_neg819 x_neg820
 x_neg821 x_neg822 x_neg823 x_neg824 x_neg825 x_neg826 x_neg827 x_neg828
 x_neg829 x_neg830 x_neg831 x_neg832 x_neg833 x_neg834 x_neg835 x_neg836
 x_neg837 x_neg838 x_neg839 x_neg840 x_neg841 x_neg842 x_neg843 x_neg844
 x_neg845 x_neg846 x_neg847 x_neg848 x_neg849 x_neg850 x_neg851 x_neg852
 x_neg853 x_neg854 x_neg855 x_neg856 x_neg857 x_neg858 x_neg859 x_neg860
 x_neg861 x_neg862 x_neg863 x_neg864 x_neg865 x_neg866 x_neg867 x_neg868
 x_neg869 x_neg870 x_neg871 x_neg872 x_neg873 x_neg874 x_neg875 x_neg876
 x_neg877 x_neg878 x_neg879 x_neg880 x_neg881 x_neg882 x_neg883 x_neg884
 x_neg885 x_neg886 x_neg887 x_neg888 x_neg889 x_neg890 x_neg891 x_neg892
 x_neg893 x_neg894 x_neg895 x_neg896 x_neg897 x_neg898 x_neg899 x_neg900
 x_neg901 x_neg902 x_neg903 x_neg904 x_neg905 x_neg906 x_neg907 x_neg908
 x_neg909 x_neg910 x_neg911 x_neg912 x_neg913 x_neg914 x_neg915 x_neg916
 x_neg917 x_neg918 x_neg919 x_neg920 x_neg921 x_neg922 x_neg923 x_neg924
 x_neg925 x_neg926 x_neg927 x_neg928 x_neg929 x_neg930
End
